feasible solution found by trivial heuristic after 0.2 seconds, objective value 1.503855e+06
presolving:
   (0.7s) running MILP presolver
   (0.8s) MILP presolver found nothing
(round 1, exhaustive) 0 del vars, 0 del conss, 0 add conss, 0 chg bounds, 0 chg sides, 0 chg coeffs, 2000 upgd conss, 0 impls, 0 clqs
   (1.3s) probing: 51/1500 (3.4%) - 0 fixings, 0 aggregations, 0 implications, 0 bound changes
   (1.3s) probing aborted: 50/50 successive totally useless probings
   (2.7s) symmetry computation started: requiring (bin +, int -, cont +), (fixed: bin -, int +, cont -)
   (2.8s) no symmetry present
presolving (2 rounds: 2 fast, 2 medium, 2 exhaustive):
 0 deleted vars, 0 deleted constraints, 0 added constraints, 0 tightened bounds, 0 added holes, 0 changed sides, 0 changed coefficients
 0 implications, 0 cliques
presolved problem has 1500 variables (1500 bin, 0 int, 0 impl, 0 cont) and 2000 constraints
   2000 constraints of type <logicor>
transformed objective value is always integral (scale: 1)
Presolving Time: 2.79
transformed 1/1 original solutions to the transformed problem space

 time | node  | left  |LP iter|LP it/n|mem/heur|mdpt |vars |cons |rows |cuts |sepa|confs|strbr|  dualbound   | primalbound  |  gap   | compl. 
p 3.5s|     1 |     0 |     0 |     - |   locks|   0 |1500 |2000 |2000 |   0 |  0 |   0 |   0 | 0.000000e+00 | 1.569300e+04 |    Inf | unknown
  3.7s|     1 |     0 |   361 |     - |   490M |   0 |1500 |2000 |2000 |   0 |  0 |   0 |   0 | 4.648655e+02 | 1.569300e+04 |3275.81%| unknown
r 3.7s|     1 |     0 |   361 |     - |simplero|   0 |1500 |2000 |2000 |   0 |  0 |   0 |   0 | 4.648655e+02 | 2.653000e+03 | 470.70%| unknown
r 3.8s|     1 |     0 |   361 |     - |rounding|   0 |1500 |2000 |2000 |   0 |  0 |   0 |   0 | 4.648655e+02 | 2.627000e+03 | 465.11%| unknown
r 3.8s|     1 |     0 |   361 |     - |shifting|   0 |1500 |2000 |2000 |   0 |  0 |   0 |   0 | 4.648655e+02 | 2.612000e+03 | 461.88%| unknown
i 3.8s|     1 |     0 |   361 |     - |  oneopt|   0 |1500 |2000 |2000 |   0 |  0 |   0 |   0 | 4.648655e+02 | 6.590000e+02 |  41.76%| unknown
  4.3s|     1 |     0 |   361 |     - |   491M |   0 |1500 |2000 |2000 |   0 |  2 |   0 |   0 | 4.648655e+02 | 6.590000e+02 |  41.76%| unknown
  4.3s|     1 |     0 |   361 |     - |   491M |   0 |1500 |2000 |2000 |   0 |  2 |   0 |   0 | 4.648655e+02 | 6.590000e+02 |  41.76%| unknown
d 5.6s|     1 |     0 |  1138 |     - |farkasdi|   0 |1500 |2000 |2000 |   0 |  4 |   0 |   0 | 4.648655e+02 | 6.560000e+02 |  41.12%| unknown
L10.8s|     1 |     0 |  1138 |     - |    rens|   0 |1500 |2000 |2000 |   0 |  4 |   0 |   0 | 4.648655e+02 | 6.070000e+02 |  30.58%| unknown
(run 1, node 1) restarting after 1288 global fixings of integer variables

presolving:
(round 1, fast)       1288 del vars, 0 del conss, 0 add conss, 0 chg bounds, 0 chg sides, 438212 chg coeffs, 0 upgd conss, 0 impls, 0 clqs
   (11.3s) running MILP presolver
   (11.4s) MILP presolver found nothing
presolving (2 rounds: 2 fast, 1 medium, 1 exhaustive):
 1288 deleted vars, 0 deleted constraints, 0 added constraints, 0 tightened bounds, 0 added holes, 0 changed sides, 438212 changed coefficients
 0 implications, 0 cliques
presolved problem has 212 variables (212 bin, 0 int, 0 impl, 0 cont) and 2000 constraints
   2000 constraints of type <logicor>
transformed objective value is always integral (scale: 1)
Presolving Time: 3.25
transformed 66/68 original solutions to the transformed problem space

 time | node  | left  |LP iter|LP it/n|mem/heur|mdpt |vars |cons |rows |cuts |sepa|confs|strbr|  dualbound   | primalbound  |  gap   | compl. 
 11.5s|     1 |     0 |  1499 |     - |   492M |   0 | 212 |2000 |2000 |   0 |  0 |   0 |   0 | 4.648655e+02 | 6.070000e+02 |  30.58%| unknown
 11.5s|     1 |     0 |  1499 |     - |   492M |   0 | 212 |2000 |2000 |   0 |  0 |   0 |   0 | 4.648655e+02 | 6.070000e+02 |  30.58%| unknown
 11.6s|     1 |     0 |  1517 |     - |   493M |   0 | 212 |2000 |2001 |   1 |  1 |   0 |   0 | 4.663244e+02 | 6.070000e+02 |  30.17%| unknown
 11.6s|     1 |     0 |  1517 |     - |   493M |   0 | 212 |2000 |2001 |   1 |  1 |   0 |   0 | 4.663244e+02 | 6.070000e+02 |  30.17%| unknown
 11.6s|     1 |     0 |  1545 |     - |   493M |   0 | 212 |2000 |2002 |   2 |  2 |   0 |   0 | 4.680793e+02 | 6.070000e+02 |  29.68%| unknown
 11.6s|     1 |     0 |  1545 |     - |   493M |   0 | 212 |2000 |2002 |   2 |  2 |   0 |   0 | 4.680793e+02 | 6.070000e+02 |  29.68%| unknown
 11.7s|     1 |     0 |  1582 |     - |   493M |   0 | 212 |2000 |2003 |   3 |  3 |   0 |   0 | 4.690328e+02 | 6.070000e+02 |  29.42%| unknown
 11.7s|     1 |     0 |  1610 |     - |   493M |   0 | 212 |2000 |2004 |   4 |  4 |   0 |   0 | 4.705953e+02 | 6.070000e+02 |  28.99%| unknown
 11.7s|     1 |     0 |  1610 |     - |   493M |   0 | 212 |2000 |2004 |   4 |  4 |   0 |   0 | 4.705953e+02 | 6.070000e+02 |  28.99%| unknown
 11.8s|     1 |     0 |  1650 |     - |   493M |   0 | 212 |2000 |2005 |   5 |  5 |   0 |   0 | 4.714457e+02 | 6.070000e+02 |  28.75%| unknown
 11.8s|     1 |     0 |  1671 |     - |   496M |   0 | 212 |2000 |2006 |   6 |  6 |   0 |   0 | 4.718000e+02 | 6.070000e+02 |  28.66%| unknown
 11.9s|     1 |     0 |  1692 |     - |   496M |   0 | 212 |2000 |2007 |   7 |  7 |   0 |   0 | 4.719128e+02 | 6.070000e+02 |  28.63%| unknown
 12.0s|     1 |     0 |  1716 |     - |   496M |   0 | 212 |2000 |2008 |   8 |  8 |   0 |   0 | 4.720345e+02 | 6.070000e+02 |  28.59%| unknown
 12.0s|     1 |     0 |  1742 |     - |   497M |   0 | 212 |2000 |2009 |   9 |  9 |   0 |   0 | 4.721512e+02 | 6.070000e+02 |  28.56%| unknown
 12.0s|     1 |     0 |  1742 |     - |   497M |   0 | 212 |2000 |2009 |   9 |  9 |   0 |   0 | 4.721512e+02 | 6.070000e+02 |  28.56%| unknown
 time | node  | left  |LP iter|LP it/n|mem/heur|mdpt |vars |cons |rows |cuts |sepa|confs|strbr|  dualbound   | primalbound  |  gap   | compl. 
 12.1s|     1 |     0 |  1775 |     - |   497M |   0 | 212 |2000 |2010 |  10 | 10 |   0 |   0 | 4.723292e+02 | 6.070000e+02 |  28.51%| unknown
 12.1s|     1 |     0 |  1798 |     - |   498M |   0 | 212 |2000 |2011 |  11 | 11 |   0 |   0 | 4.724463e+02 | 6.070000e+02 |  28.48%| unknown
 12.1s|     1 |     0 |  1844 |     - |   498M |   0 | 212 |2000 |2012 |  12 | 12 |   0 |   0 | 4.731718e+02 | 6.070000e+02 |  28.28%| unknown
 12.1s|     1 |     0 |  1853 |     - |   498M |   0 | 212 |2000 |2013 |  13 | 13 |   0 |   0 | 4.733004e+02 | 6.070000e+02 |  28.25%| unknown
 12.1s|     1 |     0 |  1873 |     - |   498M |   0 | 212 |2000 |2014 |  14 | 14 |   0 |   0 | 4.735542e+02 | 6.070000e+02 |  28.18%| unknown
 12.2s|     1 |     0 |  1894 |     - |   499M |   0 | 212 |2000 |2015 |  15 | 15 |   0 |   0 | 4.737063e+02 | 6.070000e+02 |  28.14%| unknown
 12.2s|     1 |     0 |  1911 |     - |   499M |   0 | 212 |2000 |2016 |  16 | 16 |   0 |   0 | 4.737840e+02 | 6.070000e+02 |  28.12%| unknown
 12.2s|     1 |     0 |  1922 |     - |   499M |   0 | 212 |2000 |2017 |  17 | 17 |   0 |   0 | 4.738112e+02 | 6.070000e+02 |  28.11%| unknown
 12.2s|     1 |     0 |  1946 |     - |   499M |   0 | 212 |2000 |2018 |  18 | 18 |   0 |   0 | 4.740311e+02 | 6.070000e+02 |  28.05%| unknown
 12.3s|     1 |     0 |  1946 |     - |   499M |   0 | 212 |2000 |2018 |  18 | 18 |   0 |   0 | 4.740311e+02 | 6.070000e+02 |  28.05%| unknown
 12.3s|     1 |     0 |  1971 |     - |   499M |   0 | 212 |2000 |2019 |  19 | 19 |   0 |   0 | 4.745095e+02 | 6.070000e+02 |  27.92%| unknown
 12.3s|     1 |     0 |  1971 |     - |   499M |   0 | 212 |2000 |2019 |  19 | 19 |   0 |   0 | 4.745095e+02 | 6.070000e+02 |  27.92%| unknown
 12.4s|     1 |     0 |  1986 |     - |   500M |   0 | 212 |2000 |2020 |  20 | 20 |   0 |   0 | 4.747311e+02 | 6.070000e+02 |  27.86%| unknown
 12.4s|     1 |     0 |  2004 |     - |   500M |   0 | 212 |2000 |2021 |  21 | 21 |   0 |   0 | 4.749471e+02 | 6.070000e+02 |  27.80%| unknown
 12.5s|     1 |     0 |  2016 |     - |   500M |   0 | 212 |2000 |2022 |  22 | 22 |   0 |   0 | 4.749853e+02 | 6.070000e+02 |  27.79%| unknown
 time | node  | left  |LP iter|LP it/n|mem/heur|mdpt |vars |cons |rows |cuts |sepa|confs|strbr|  dualbound   | primalbound  |  gap   | compl. 
 12.5s|     1 |     0 |  2028 |     - |   500M |   0 | 212 |2000 |2023 |  23 | 23 |   0 |   0 | 4.750507e+02 | 6.070000e+02 |  27.78%| unknown
 12.6s|     1 |     0 |  2044 |     - |   500M |   0 | 212 |2000 |2024 |  24 | 24 |   0 |   0 | 4.752137e+02 | 6.070000e+02 |  27.73%| unknown
(run 2, node 1) restarting after 46 global fixings of integer variables

(restart) converted 24 cuts from the global cut pool into linear constraints

presolving:
(round 1, fast)       46 del vars, 0 del conss, 0 add conss, 0 chg bounds, 0 chg sides, 15522 chg coeffs, 0 upgd conss, 0 impls, 0 clqs
   (17.0s) running MILP presolver
   (17.0s) MILP presolver found nothing
(round 2, exhaustive) 46 del vars, 0 del conss, 0 add conss, 0 chg bounds, 0 chg sides, 15522 chg coeffs, 21 upgd conss, 0 impls, 0 clqs
presolving (3 rounds: 3 fast, 2 medium, 2 exhaustive):
 46 deleted vars, 0 deleted constraints, 0 added constraints, 0 tightened bounds, 0 added holes, 0 changed sides, 15522 changed coefficients
 0 implications, 0 cliques
presolved problem has 166 variables (166 bin, 0 int, 0 impl, 0 cont) and 2024 constraints
     21 constraints of type <knapsack>
      3 constraints of type <linear>
   2000 constraints of type <logicor>
transformed objective value is always integral (scale: 1)
Presolving Time: 3.44
transformed 100/100 original solutions to the transformed problem space

 time | node  | left  |LP iter|LP it/n|mem/heur|mdpt |vars |cons |rows |cuts |sepa|confs|strbr|  dualbound   | primalbound  |  gap   | compl. 
 17.2s|     1 |     0 |  3128 |     - |   500M |   0 | 166 |2024 |2024 |   0 |  0 |   0 |   0 | 4.752137e+02 | 6.070000e+02 |  27.73%| unknown
 17.4s|     1 |     0 |  3141 |     - |   500M |   0 | 166 |2024 |2025 |   1 |  1 |   0 |   0 | 4.756209e+02 | 6.070000e+02 |  27.62%| unknown
 17.5s|     1 |     0 |  3165 |     - |   501M |   0 | 166 |2024 |2026 |   2 |  2 |   0 |   0 | 4.757747e+02 | 6.070000e+02 |  27.58%| unknown
 17.6s|     1 |     0 |  3176 |     - |   501M |   0 | 166 |2024 |2027 |   3 |  3 |   0 |   0 | 4.758703e+02 | 6.070000e+02 |  27.56%| unknown
 17.7s|     1 |     0 |  3202 |     - |   501M |   0 | 166 |2024 |2028 |   4 |  4 |   0 |   0 | 4.760431e+02 | 6.070000e+02 |  27.51%| unknown
 17.9s|     1 |     0 |  3271 |     - |   501M |   0 | 166 |2024 |2029 |   5 |  5 |   0 |   0 | 4.763973e+02 | 6.070000e+02 |  27.41%| unknown
 17.9s|     1 |     0 |  3284 |     - |   502M |   0 | 166 |2024 |2030 |   6 |  6 |   0 |   0 | 4.764768e+02 | 6.070000e+02 |  27.39%| unknown
 18.0s|     1 |     0 |  3322 |     - |   503M |   0 | 166 |2024 |2031 |   7 |  7 |   0 |   0 | 4.767416e+02 | 6.070000e+02 |  27.32%| unknown
 18.1s|     1 |     0 |  3333 |     - |   503M |   0 | 166 |2024 |2032 |   8 |  8 |   0 |   0 | 4.767796e+02 | 6.070000e+02 |  27.31%| unknown
 18.2s|     1 |     0 |  3384 |     - |   503M |   0 | 166 |2024 |2033 |   9 |  9 |   0 |   0 | 4.770205e+02 | 6.070000e+02 |  27.25%| unknown
 18.3s|     1 |     0 |  3398 |     - |   503M |   0 | 166 |2024 |2034 |  10 | 10 |   0 |   0 | 4.770375e+02 | 6.070000e+02 |  27.24%| unknown
 18.3s|     1 |     0 |  3435 |     - |   504M |   0 | 166 |2024 |2035 |  11 | 11 |   0 |   0 | 4.771129e+02 | 6.070000e+02 |  27.22%| unknown
 18.4s|     1 |     0 |  3451 |     - |   504M |   0 | 166 |2024 |2036 |  12 | 12 |   0 |   0 | 4.771334e+02 | 6.070000e+02 |  27.22%| unknown
 18.4s|     1 |     0 |  3465 |     - |   504M |   0 | 166 |2024 |2037 |  13 | 13 |   0 |   0 | 4.771452e+02 | 6.070000e+02 |  27.21%| unknown
 18.4s|     1 |     0 |  3483 |     - |   504M |   0 | 166 |2024 |2038 |  14 | 14 |   0 |   0 | 4.771637e+02 | 6.070000e+02 |  27.21%| unknown
 time | node  | left  |LP iter|LP it/n|mem/heur|mdpt |vars |cons |rows |cuts |sepa|confs|strbr|  dualbound   | primalbound  |  gap   | compl. 
 18.5s|     1 |     0 |  3501 |     - |   504M |   0 | 166 |2024 |2033 |  15 | 15 |   0 |   0 | 4.771763e+02 | 6.070000e+02 |  27.21%| unknown
 18.5s|     1 |     0 |  3506 |     - |   504M |   0 | 166 |2024 |2034 |  16 | 16 |   0 |   0 | 4.771842e+02 | 6.070000e+02 |  27.20%| unknown
 18.5s|     1 |     0 |  3516 |     - |   504M |   0 | 166 |2024 |2035 |  17 | 17 |   0 |   0 | 4.771911e+02 | 6.070000e+02 |  27.20%| unknown
 18.6s|     1 |     0 |  3524 |     - |   504M |   0 | 166 |2024 |2036 |  18 | 18 |   0 |   0 | 4.771971e+02 | 6.070000e+02 |  27.20%| unknown
 18.6s|     1 |     0 |  3532 |     - |   504M |   0 | 166 |2024 |2037 |  19 | 19 |   0 |   0 | 4.772021e+02 | 6.070000e+02 |  27.20%| unknown
 18.6s|     1 |     0 |  3547 |     - |   504M |   0 | 166 |2024 |2038 |  20 | 20 |   0 |   0 | 4.772159e+02 | 6.070000e+02 |  27.20%| unknown
 18.6s|     1 |     0 |  3556 |     - |   504M |   0 | 166 |2024 |2031 |  21 | 21 |   0 |   0 | 4.772203e+02 | 6.070000e+02 |  27.19%| unknown
 22.9s|     1 |     2 |  4289 |     - |   504M |   0 | 166 |2024 |2031 |  21 | 21 |   0 |  37 | 4.830914e+02 | 6.070000e+02 |  25.65%| unknown
 29.0s|   100 |    27 | 10607 |  84.2 |   506M |  10 | 166 |2199 |2026 |  22 |  0 | 204 | 281 | 5.050627e+02 | 6.070000e+02 |  20.18%|  28.56%
 32.4s|   200 |    43 | 16507 |  71.7 |   515M |  15 | 166 |2241 |2026 |  70 |  0 | 290 | 336 | 5.244844e+02 | 6.070000e+02 |  15.73%|  37.09%
 36.8s|   300 |    79 | 24679 |  75.0 |   515M |  15 | 166 |2300 |2030 | 105 |  0 | 417 | 392 | 5.430055e+02 | 6.070000e+02 |  11.79%|  49.87%
 40.1s|   400 |   113 | 31901 |  74.3 |   516M |  15 | 166 |2341 |2026 | 150 |  2 | 519 | 432 | 5.529682e+02 | 6.070000e+02 |   9.77%|  58.59%
 42.4s|   500 |   119 | 36785 |  69.2 |   516M |  17 | 166 |2359 |2033 | 193 |  0 | 574 | 455 | 5.575567e+02 | 6.070000e+02 |   8.87%|  61.24%
 44.9s|   600 |   129 | 42662 |  67.5 |   516M |  17 | 166 |2387 |2026 | 249 |  0 | 652 | 478 | 5.688932e+02 | 6.070000e+02 |   6.70%|  69.09%
 47.1s|   700 |   113 | 46605 |  63.5 |   516M |  17 | 166 |2389 |2027 | 292 |  0 | 680 | 488 | 5.708545e+02 | 6.070000e+02 |   6.33%|  71.66%
 time | node  | left  |LP iter|LP it/n|mem/heur|mdpt |vars |cons |rows |cuts |sepa|confs|strbr|  dualbound   | primalbound  |  gap   | compl. 
 48.6s|   800 |    83 | 49904 |  59.7 |   516M |  17 | 166 |2394 |2031 | 310 |  0 | 711 | 498 | 5.764795e+02 | 6.070000e+02 |   5.29%|  77.96%
 50.1s|   900 |    49 | 52943 |  56.4 |   516M |  17 | 166 |2400 |2029 | 335 |  0 | 747 | 514 | 5.851775e+02 | 6.070000e+02 |   3.73%|  84.71%

SCIP Status        : problem is solved [optimal solution found]
Solving Time (sec) : 50.77
Solving Nodes      : 965 (total of 967 nodes in 3 runs)
Primal Bound       : +6.07000000000000e+02 (435 solutions)
Dual Bound         : +6.07000000000000e+02
Gap                : 0.00 %
Solve Status: optimal
Solve Time: 50.80 seconds
